(set-info :source |printed by MathSAT|)
(declare-fun |.x{133}| () Int)
(declare-fun |.x{142}| () Int)
(declare-fun |.x{134}| () Int)
(declare-fun |.y{3}| () Int)
(declare-fun |.x{135}| () (Array Int Int))
(declare-fun |.x{143}| () (Array Int Int))
(declare-fun |.x{136}| () Int)
(declare-fun |.x{141}| () Int)
(declare-fun |.y{2}| () Int)
(declare-fun |.x{144}| () Int)
(declare-fun |.loc{4}| () Bool)
(declare-fun |.loc{7}| () Bool)
(declare-fun |.loc{5}| () Bool)
(declare-fun |.loc{8}| () Bool)
(declare-fun |.loc{6}| () Bool)
(declare-fun |.loc{9}| () Bool)
(declare-fun |.x{152}| () Int)
(declare-fun |.x{170}| () Int)
(define-fun .def_18 () Bool (! |.loc{4}| :next |.loc{7}|))
(define-fun .def_72 () Bool (not .def_18))
(define-fun .def_20 () Bool (! |.loc{5}| :next |.loc{8}|))
(define-fun .def_51 () Bool (not .def_20))
(define-fun .def_179 () Bool (and .def_51 .def_72))
(define-fun .def_22 () Bool (! |.loc{6}| :next |.loc{9}|))
(define-fun .def_60 () Bool (not .def_22))
(define-fun .def_180 () Bool (! (and .def_60 .def_179) :init true))
(define-fun .def_24 () Bool (not |.loc{8}|))
(define-fun .def_170 () Bool (and |.loc{9}| .def_24))
(define-fun .def_161 () Bool (= |.x{141}| 0))
(define-fun .def_14 () Int (! |.x{136}| :next |.x{141}|))
(define-fun .def_158 () Bool (= .def_14 |.x{144}|))
(define-fun .def_10 () Int (! |.x{134}| :next |.y{3}|))
(define-fun .def_25 () Bool (<= .def_14 .def_10))
(define-fun .def_159 () Bool (and .def_25 .def_158))
(define-fun .def_160 () Bool (and .def_72 .def_159))
(define-fun .def_162 () Bool (and .def_160 .def_161))
(define-fun .def_163 () Bool (and .def_161 .def_162))
(define-fun .def_154 () Int (* (- 1) |.x{141}|))
(define-fun .def_155 () Int (+ .def_14 .def_154))
(define-fun .def_156 () Bool (= .def_155 (- 1)))
(define-fun .def_55 () Int (* (- 1) |.x{152}|))
(define-fun .def_148 () Int (+ .def_14 .def_55))
(define-fun .def_8 () Int (! |.x{133}| :next |.x{142}|))
(define-fun .def_149 () Int (+ .def_8 .def_148))
(define-fun .def_150 () Bool (= .def_149 0))
(define-fun .def_16 () Int (! |.y{2}| :next |.x{144}|))
(define-fun .def_144 () Bool (<= .def_16 .def_14))
(define-fun .def_145 () Bool (not .def_144))
(define-fun .def_12 () (Array Int Int) (! |.x{135}| :next |.x{143}|))
(define-fun .def_141 () Int (select .def_12 |.x{152}|))
(define-fun .def_142 () Bool (= .def_141 45))
(define-fun .def_140 () Bool (= .def_16 |.x{144}|))
(define-fun .def_143 () Bool (and .def_140 .def_142))
(define-fun .def_146 () Bool (and .def_143 .def_145))
(define-fun .def_147 () Bool (and .def_18 .def_146))
(define-fun .def_151 () Bool (and .def_147 .def_150))
(define-fun .def_47 () Bool (<= |.x{152}| 0))
(define-fun .def_48 () Bool (not .def_47))
(define-fun .def_46 () Bool (<= .def_8 0))
(define-fun .def_49 () Bool (or .def_46 .def_48))
(define-fun .def_152 () Bool (and .def_49 .def_151))
(define-fun .def_53 () Bool (not .def_46))
(define-fun .def_153 () Bool (and .def_53 .def_152))
(define-fun .def_157 () Bool (and .def_153 .def_156))
(define-fun .def_164 () Bool (or .def_157 .def_163))
(define-fun .def_139 () Bool (and .def_22 .def_51))
(define-fun .def_165 () Bool (and .def_139 .def_164))
(define-fun .def_166 () Bool (and |.loc{7}| .def_165))
(define-fun .def_65 () Bool (= |.y{3}| 0))
(define-fun .def_133 () Bool (and .def_25 .def_65))
(define-fun .def_28 () Bool (= .def_14 |.x{141}|))
(define-fun .def_134 () Bool (and .def_28 .def_133))
(define-fun .def_135 () Bool (and .def_18 .def_134))
(define-fun .def_136 () Bool (and .def_20 .def_135))
(define-fun .def_89 () Bool (not |.loc{7}|))
(define-fun .def_137 () Bool (and .def_89 .def_136))
(define-fun .def_138 () Bool (and .def_60 .def_137))
(define-fun .def_167 () Bool (or .def_138 .def_166))
(define-fun .def_96 () Bool (= .def_12 |.x{143}|))
(define-fun .def_168 () Bool (and .def_96 .def_167))
(define-fun .def_127 () (Array Int Int) (store .def_12 |.x{152}| 45))
(define-fun .def_128 () Bool (= |.x{143}| .def_127))
(define-fun .def_26 () Bool (not .def_25))
(define-fun .def_120 () Bool (and .def_26 .def_28))
(define-fun .def_121 () Bool (and .def_22 .def_120))
(define-fun .def_41 () Int (* (- 1) |.y{3}|))
(define-fun .def_42 () Int (+ .def_10 .def_41))
(define-fun .def_43 () Bool (= .def_42 (- 1)))
(define-fun .def_122 () Bool (and .def_43 .def_121))
(define-fun .def_123 () Bool (and .def_72 .def_122))
(define-fun .def_124 () Bool (and .def_49 .def_123))
(define-fun .def_125 () Bool (and .def_51 .def_124))
(define-fun .def_129 () Bool (and .def_125 .def_128))
(define-fun .def_130 () Bool (and .def_53 .def_129))
(define-fun .def_131 () Bool (and .def_89 .def_130))
(define-fun .def_56 () Int (+ .def_10 .def_55))
(define-fun .def_57 () Int (+ .def_8 .def_56))
(define-fun .def_58 () Bool (= .def_57 0))
(define-fun .def_132 () Bool (and .def_58 .def_131))
(define-fun .def_169 () Bool (or .def_132 .def_168))
(define-fun .def_171 () Bool (and .def_169 .def_170))
(define-fun .def_93 () Bool (and |.loc{8}| .def_65))
(define-fun .def_94 () Bool (and .def_25 .def_93))
(define-fun .def_95 () Bool (and .def_28 .def_94))
(define-fun .def_97 () Bool (and .def_95 .def_96))
(define-fun .def_37 () Bool (not |.loc{9}|))
(define-fun .def_98 () Bool (and .def_37 .def_97))
(define-fun .def_116 () Bool (and .def_20 .def_98))
(define-fun .def_117 () Bool (and .def_72 .def_116))
(define-fun .def_118 () Bool (and .def_60 .def_117))
(define-fun .def_119 () Bool (and |.loc{7}| .def_118))
(define-fun .def_172 () Bool (or .def_119 .def_171))
(define-fun .def_104 () (Array Int Int) (store .def_12 |.x{152}| 44))
(define-fun .def_105 () Bool (= |.x{143}| .def_104))
(define-fun .def_80 () Bool (and |.loc{8}| .def_26))
(define-fun .def_81 () Bool (and .def_28 .def_80))
(define-fun .def_106 () Bool (and .def_81 .def_105))
(define-fun .def_107 () Bool (and .def_37 .def_106))
(define-fun .def_108 () Bool (and .def_18 .def_107))
(define-fun .def_109 () Bool (and .def_20 .def_108))
(define-fun .def_110 () Bool (and .def_43 .def_109))
(define-fun .def_111 () Bool (and .def_49 .def_110))
(define-fun .def_112 () Bool (and .def_53 .def_111))
(define-fun .def_113 () Bool (and .def_58 .def_112))
(define-fun .def_114 () Bool (and .def_60 .def_113))
(define-fun .def_115 () Bool (and |.loc{7}| .def_114))
(define-fun .def_173 () Bool (or .def_115 .def_172))
(define-fun .def_99 () Bool (and .def_18 .def_98))
(define-fun .def_100 () Bool (and .def_51 .def_99))
(define-fun .def_101 () Bool (and .def_89 .def_100))
(define-fun .def_102 () Bool (and .def_60 .def_101))
(define-fun .def_174 () Bool (or .def_102 .def_173))
(define-fun .def_78 () (Array Int Int) (store .def_12 |.x{152}| 43))
(define-fun .def_79 () Bool (= |.x{143}| .def_78))
(define-fun .def_82 () Bool (and .def_79 .def_81))
(define-fun .def_83 () Bool (and .def_37 .def_82))
(define-fun .def_84 () Bool (and .def_20 .def_83))
(define-fun .def_85 () Bool (and .def_43 .def_84))
(define-fun .def_86 () Bool (and .def_72 .def_85))
(define-fun .def_87 () Bool (and .def_49 .def_86))
(define-fun .def_88 () Bool (and .def_53 .def_87))
(define-fun .def_90 () Bool (and .def_88 .def_89))
(define-fun .def_91 () Bool (and .def_58 .def_90))
(define-fun .def_92 () Bool (and .def_60 .def_91))
(define-fun .def_175 () Bool (or .def_92 .def_174))
(define-fun .def_30 () Bool (= .def_8 |.x{142}|))
(define-fun .def_176 () Bool (and .def_30 .def_175))
(define-fun .def_68 () Bool (<= |.x{141}| 0))
(define-fun .def_69 () Bool (not .def_68))
(define-fun .def_63 () Bool (<= |.x{142}| 0))
(define-fun .def_64 () Bool (not .def_63))
(define-fun .def_66 () Bool (and .def_64 .def_65))
(define-fun .def_67 () Bool (and .def_24 .def_66))
(define-fun .def_70 () Bool (and .def_67 .def_69))
(define-fun .def_71 () Bool (and .def_37 .def_70))
(define-fun .def_73 () Bool (and .def_71 .def_72))
(define-fun .def_74 () Bool (and .def_51 .def_73))
(define-fun .def_75 () Bool (and .def_60 .def_74))
(define-fun .def_76 () Bool (and |.loc{7}| .def_75))
(define-fun .def_177 () Bool (or .def_76 .def_176))
(define-fun .def_34 () (Array Int Int) (store .def_12 |.x{152}| 42))
(define-fun .def_35 () Bool (= |.x{143}| .def_34))
(define-fun .def_27 () Bool (and .def_24 .def_26))
(define-fun .def_29 () Bool (and .def_27 .def_28))
(define-fun .def_31 () Bool (and .def_29 .def_30))
(define-fun .def_36 () Bool (and .def_31 .def_35))
(define-fun .def_38 () Bool (and .def_36 .def_37))
(define-fun .def_39 () Bool (and .def_18 .def_38))
(define-fun .def_44 () Bool (and .def_39 .def_43))
(define-fun .def_50 () Bool (and .def_44 .def_49))
(define-fun .def_52 () Bool (and .def_50 .def_51))
(define-fun .def_54 () Bool (and .def_52 .def_53))
(define-fun .def_59 () Bool (and .def_54 .def_58))
(define-fun .def_61 () Bool (and .def_59 .def_60))
(define-fun .def_62 () Bool (and |.loc{7}| .def_61))
(define-fun .def_178 () Bool (! (or .def_62 .def_177) :trans true))
(define-fun .def_181 () Int (! |.x{170}| :next |.xpv{1}|))
(define-fun .def_196 () Bool (and .def_18 .def_51))
(define-fun .def_197 () Bool (and .def_22 .def_196))
(define-fun .def_192 () Int (select .def_12 .def_181))
(define-fun .def_193 () Bool (= .def_192 45))
(define-fun .def_194 () Bool (not .def_193))
(define-fun .def_185 () Int (* (- 1) .def_181))
(define-fun .def_186 () Int (+ .def_14 .def_185))
(define-fun .def_187 () Int (+ .def_8 .def_186))
(define-fun .def_188 () Bool (= .def_187 0))
(define-fun .def_189 () Bool (and .def_145 .def_188))
(define-fun .def_182 () Bool (<= .def_181 0))
(define-fun .def_183 () Bool (not .def_182))
(define-fun .def_184 () Bool (or .def_46 .def_183))
(define-fun .def_190 () Bool (and .def_184 .def_189))
(define-fun .def_191 () Bool (and .def_53 .def_190))
(define-fun .def_195 () Bool (and .def_191 .def_194))
(define-fun .def_198 () Bool (and .def_195 .def_197))
(define-fun .def_200 () Bool (! (not .def_198) :invar-property 0))
(assert true)
